p cnf 591 1596
-27 1 0
-27 -2 0
-28 -1 0
-28 2 0
29 27 28 0
-30 3 0
-30 -4 0
-31 -3 0
-31 4 0
32 30 31 0
33 -29 -32 0
-34 5 0
-34 -6 0
-35 -5 0
-35 6 0
36 34 35 0
37 -33 -36 0
-38 7 0
-38 -8 0
-39 -7 0
-39 8 0
40 38 39 0
41 -37 -40 0
-42 9 0
-42 -10 0
-43 -9 0
-43 10 0
44 42 43 0
45 -41 -44 0
-46 11 0
-46 -12 0
-47 -11 0
-47 12 0
48 46 47 0
49 -45 -48 0
-50 13 0
-50 -14 0
-51 -13 0
-51 14 0
52 50 51 0
53 -49 -52 0
-54 15 0
-54 -16 0
-55 -15 0
-55 16 0
56 54 55 0
57 -53 -56 0
58 -17 18 0
59 17 -18 0
-60 -58 0
-60 -59 0
-61 17 0
-61 19 0
61 -17 -19 0
-62 15 0
-62 61 0
62 -15 -61 0
-63 15 0
-63 19 0
63 -15 -19 0
-64 13 0
-64 63 0
64 -13 -63 0
-65 -13 0
-65 -63 0
65 13 63 0
-66 -64 0
-66 -65 0
66 64 65 0
-67 62 0
-67 66 0
67 -62 -66 0
-68 -62 0
-68 -66 0
68 62 66 0
-69 -67 0
-69 -68 0
69 67 68 0
-70 17 0
-70 20 0
70 -17 -20 0
-71 69 0
-71 70 0
71 -69 -70 0
-72 -64 0
-72 -67 0
72 64 67 0
-73 13 0
-73 19 0
73 -13 -19 0
-74 11 0
-74 73 0
74 -11 -73 0
-75 -11 0
-75 -73 0
75 11 73 0
-76 -74 0
-76 -75 0
76 74 75 0
-77 -72 0
-77 76 0
77 72 -76 0
-78 72 0
-78 -76 0
78 -72 76 0
-79 -77 0
-79 -78 0
79 77 78 0
-80 15 0
-80 20 0
80 -15 -20 0
-81 79 0
-81 80 0
81 -79 -80 0
-82 -79 0
-82 -80 0
82 79 80 0
-83 -81 0
-83 -82 0
83 81 82 0
-84 71 0
-84 83 0
84 -71 -83 0
-85 -71 0
-85 -83 0
85 71 83 0
-86 -84 0
-86 -85 0
86 84 85 0
-87 17 0
-87 21 0
87 -17 -21 0
-88 86 0
-88 87 0
88 -86 -87 0
-89 -81 0
-89 -84 0
89 81 84 0
-90 -74 0
-90 -77 0
90 74 77 0
-91 11 0
-91 19 0
91 -11 -19 0
-92 9 0
-92 91 0
92 -9 -91 0
-93 -9 0
-93 -91 0
93 9 91 0
-94 -92 0
-94 -93 0
94 92 93 0
-95 -90 0
-95 94 0
95 90 -94 0
-96 90 0
-96 -94 0
96 -90 94 0
-97 -95 0
-97 -96 0
97 95 96 0
-98 13 0
-98 20 0
98 -13 -20 0
-99 97 0
-99 98 0
99 -97 -98 0
-100 -97 0
-100 -98 0
100 97 98 0
-101 -99 0
-101 -100 0
101 99 100 0
-102 -89 0
-102 101 0
102 89 -101 0
-103 89 0
-103 -101 0
103 -89 101 0
-104 -102 0
-104 -103 0
104 102 103 0
-105 15 0
-105 21 0
105 -15 -21 0
-106 104 0
-106 105 0
106 -104 -105 0
-107 -104 0
-107 -105 0
107 104 105 0
-108 -106 0
-108 -107 0
108 106 107 0
-109 88 0
-109 108 0
109 -88 -108 0
-110 -88 0
-110 -108 0
110 88 108 0
-111 -109 0
-111 -110 0
111 109 110 0
-112 17 0
-112 22 0
112 -17 -22 0
-113 111 0
-113 112 0
113 -111 -112 0
-114 -106 0
-114 -109 0
114 106 109 0
-115 -99 0
-115 -102 0
115 99 102 0
-116 -92 0
-116 -95 0
116 92 95 0
-117 9 0
-117 19 0
117 -9 -19 0
-118 7 0
-118 117 0
118 -7 -117 0
-119 -7 0
-119 -117 0
119 7 117 0
-120 -118 0
-120 -119 0
120 118 119 0
-121 -116 0
-121 120 0
121 116 -120 0
-122 116 0
-122 -120 0
122 -116 120 0
-123 -121 0
-123 -122 0
123 121 122 0
-124 11 0
-124 20 0
124 -11 -20 0
-125 123 0
-125 124 0
125 -123 -124 0
-126 -123 0
-126 -124 0
126 123 124 0
-127 -125 0
-127 -126 0
127 125 126 0
-128 -115 0
-128 127 0
128 115 -127 0
-129 115 0
-129 -127 0
129 -115 127 0
-130 -128 0
-130 -129 0
130 128 129 0
-131 13 0
-131 21 0
131 -13 -21 0
-132 130 0
-132 131 0
132 -130 -131 0
-133 -130 0
-133 -131 0
133 130 131 0
-134 -132 0
-134 -133 0
134 132 133 0
-135 -114 0
-135 134 0
135 114 -134 0
-136 114 0
-136 -134 0
136 -114 134 0
-137 -135 0
-137 -136 0
137 135 136 0
-138 15 0
-138 22 0
138 -15 -22 0
-139 137 0
-139 138 0
139 -137 -138 0
-140 -137 0
-140 -138 0
140 137 138 0
-141 -139 0
-141 -140 0
141 139 140 0
-142 113 0
-142 141 0
142 -113 -141 0
-143 -113 0
-143 -141 0
143 113 141 0
-144 -142 0
-144 -143 0
144 142 143 0
-145 17 0
-145 23 0
145 -17 -23 0
-146 144 0
-146 145 0
146 -144 -145 0
-147 -139 0
-147 -142 0
147 139 142 0
-148 -132 0
-148 -135 0
148 132 135 0
-149 -125 0
-149 -128 0
149 125 128 0
-150 -118 0
-150 -121 0
150 118 121 0
-151 7 0
-151 19 0
151 -7 -19 0
-152 5 0
-152 151 0
152 -5 -151 0
-153 -5 0
-153 -151 0
153 5 151 0
-154 -152 0
-154 -153 0
154 152 153 0
-155 -150 0
-155 154 0
155 150 -154 0
-156 150 0
-156 -154 0
156 -150 154 0
-157 -155 0
-157 -156 0
157 155 156 0
-158 9 0
-158 20 0
158 -9 -20 0
-159 157 0
-159 158 0
159 -157 -158 0
-160 -157 0
-160 -158 0
160 157 158 0
-161 -159 0
-161 -160 0
161 159 160 0
-162 -149 0
-162 161 0
162 149 -161 0
-163 149 0
-163 -161 0
163 -149 161 0
-164 -162 0
-164 -163 0
164 162 163 0
-165 11 0
-165 21 0
165 -11 -21 0
-166 164 0
-166 165 0
166 -164 -165 0
-167 -164 0
-167 -165 0
167 164 165 0
-168 -166 0
-168 -167 0
168 166 167 0
-169 -148 0
-169 168 0
169 148 -168 0
-170 148 0
-170 -168 0
170 -148 168 0
-171 -169 0
-171 -170 0
171 169 170 0
-172 13 0
-172 22 0
172 -13 -22 0
-173 171 0
-173 172 0
173 -171 -172 0
-174 -171 0
-174 -172 0
174 171 172 0
-175 -173 0
-175 -174 0
175 173 174 0
-176 -147 0
-176 175 0
176 147 -175 0
-177 147 0
-177 -175 0
177 -147 175 0
-178 -176 0
-178 -177 0
178 176 177 0
-179 15 0
-179 23 0
179 -15 -23 0
-180 178 0
-180 179 0
180 -178 -179 0
-181 -178 0
-181 -179 0
181 178 179 0
-182 -180 0
-182 -181 0
182 180 181 0
-183 146 0
-183 182 0
183 -146 -182 0
-184 -146 0
-184 -182 0
184 146 182 0
-185 -183 0
-185 -184 0
185 183 184 0
-186 17 0
-186 24 0
186 -17 -24 0
-187 185 0
-187 186 0
187 -185 -186 0
-188 -180 0
-188 -183 0
188 180 183 0
-189 -173 0
-189 -176 0
189 173 176 0
-190 -166 0
-190 -169 0
190 166 169 0
-191 -159 0
-191 -162 0
191 159 162 0
-192 -152 0
-192 -155 0
192 152 155 0
-193 5 0
-193 19 0
193 -5 -19 0
-194 3 0
-194 193 0
194 -3 -193 0
-195 -3 0
-195 -193 0
195 3 193 0
-196 -194 0
-196 -195 0
196 194 195 0
-197 -192 0
-197 196 0
197 192 -196 0
-198 192 0
-198 -196 0
198 -192 196 0
-199 -197 0
-199 -198 0
199 197 198 0
-200 7 0
-200 20 0
200 -7 -20 0
-201 199 0
-201 200 0
201 -199 -200 0
-202 -199 0
-202 -200 0
202 199 200 0
-203 -201 0
-203 -202 0
203 201 202 0
-204 -191 0
-204 203 0
204 191 -203 0
-205 191 0
-205 -203 0
205 -191 203 0
-206 -204 0
-206 -205 0
206 204 205 0
-207 9 0
-207 21 0
207 -9 -21 0
-208 206 0
-208 207 0
208 -206 -207 0
-209 -206 0
-209 -207 0
209 206 207 0
-210 -208 0
-210 -209 0
210 208 209 0
-211 -190 0
-211 210 0
211 190 -210 0
-212 190 0
-212 -210 0
212 -190 210 0
-213 -211 0
-213 -212 0
213 211 212 0
-214 11 0
-214 22 0
214 -11 -22 0
-215 213 0
-215 214 0
215 -213 -214 0
-216 -213 0
-216 -214 0
216 213 214 0
-217 -215 0
-217 -216 0
217 215 216 0
-218 -189 0
-218 217 0
218 189 -217 0
-219 189 0
-219 -217 0
219 -189 217 0
-220 -218 0
-220 -219 0
220 218 219 0
-221 13 0
-221 23 0
221 -13 -23 0
-222 220 0
-222 221 0
222 -220 -221 0
-223 -220 0
-223 -221 0
223 220 221 0
-224 -222 0
-224 -223 0
224 222 223 0
-225 -188 0
-225 224 0
225 188 -224 0
-226 188 0
-226 -224 0
226 -188 224 0
-227 -225 0
-227 -226 0
227 225 226 0
-228 15 0
-228 24 0
228 -15 -24 0
-229 227 0
-229 228 0
229 -227 -228 0
-230 -227 0
-230 -228 0
230 227 228 0
-231 -229 0
-231 -230 0
231 229 230 0
-232 187 0
-232 231 0
232 -187 -231 0
-233 -187 0
-233 -231 0
233 187 231 0
-234 -232 0
-234 -233 0
234 232 233 0
-235 17 0
-235 25 0
235 -17 -25 0
-236 234 0
-236 235 0
236 -234 -235 0
-237 -229 0
-237 -232 0
237 229 232 0
-238 -222 0
-238 -225 0
238 222 225 0
-239 -215 0
-239 -218 0
239 215 218 0
-240 -208 0
-240 -211 0
240 208 211 0
-241 -201 0
-241 -204 0
241 201 204 0
-242 -194 0
-242 -197 0
242 194 197 0
-243 3 0
-243 19 0
243 -3 -19 0
-244 1 0
-244 243 0
244 -1 -243 0
-245 -1 0
-245 -243 0
245 1 243 0
-246 -244 0
-246 -245 0
246 244 245 0
-247 -242 0
-247 246 0
247 242 -246 0
-248 242 0
-248 -246 0
248 -242 246 0
-249 -247 0
-249 -248 0
249 247 248 0
-250 5 0
-250 20 0
250 -5 -20 0
-251 249 0
-251 250 0
251 -249 -250 0
-252 -249 0
-252 -250 0
252 249 250 0
-253 -251 0
-253 -252 0
253 251 252 0
-254 -241 0
-254 253 0
254 241 -253 0
-255 241 0
-255 -253 0
255 -241 253 0
-256 -254 0
-256 -255 0
256 254 255 0
-257 7 0
-257 21 0
257 -7 -21 0
-258 256 0
-258 257 0
258 -256 -257 0
-259 -256 0
-259 -257 0
259 256 257 0
-260 -258 0
-260 -259 0
260 258 259 0
-261 -240 0
-261 260 0
261 240 -260 0
-262 240 0
-262 -260 0
262 -240 260 0
-263 -261 0
-263 -262 0
263 261 262 0
-264 9 0
-264 22 0
264 -9 -22 0
-265 263 0
-265 264 0
265 -263 -264 0
-266 -263 0
-266 -264 0
266 263 264 0
-267 -265 0
-267 -266 0
267 265 266 0
-268 -239 0
-268 267 0
268 239 -267 0
-269 239 0
-269 -267 0
269 -239 267 0
-270 -268 0
-270 -269 0
270 268 269 0
-271 11 0
-271 23 0
271 -11 -23 0
-272 270 0
-272 271 0
272 -270 -271 0
-273 -270 0
-273 -271 0
273 270 271 0
-274 -272 0
-274 -273 0
274 272 273 0
-275 -238 0
-275 274 0
275 238 -274 0
-276 238 0
-276 -274 0
276 -238 274 0
-277 -275 0
-277 -276 0
277 275 276 0
-278 13 0
-278 24 0
278 -13 -24 0
-279 277 0
-279 278 0
279 -277 -278 0
-280 -277 0
-280 -278 0
280 277 278 0
-281 -279 0
-281 -280 0
281 279 280 0
-282 -237 0
-282 281 0
282 237 -281 0
-283 237 0
-283 -281 0
283 -237 281 0
-284 -282 0
-284 -283 0
284 282 283 0
-285 15 0
-285 25 0
285 -15 -25 0
-286 284 0
-286 285 0
286 -284 -285 0
-287 -284 0
-287 -285 0
287 284 285 0
-288 -286 0
-288 -287 0
288 286 287 0
-289 236 0
-289 288 0
289 -236 -288 0
-290 -236 0
-290 -288 0
290 236 288 0
-291 -289 0
-291 -290 0
291 289 290 0
-292 17 0
-292 26 0
292 -17 -26 0
-293 291 0
-293 292 0
293 -291 -292 0
-294 -291 0
-294 -292 0
294 291 292 0
-295 -293 0
-295 -294 0
295 293 294 0
-296 18 0
-296 19 0
296 -18 -19 0
-297 16 0
-297 296 0
297 -16 -296 0
-298 16 0
-298 19 0
298 -16 -19 0
-299 14 0
-299 298 0
299 -14 -298 0
-300 -14 0
-300 -298 0
300 14 298 0
-301 -299 0
-301 -300 0
301 299 300 0
-302 297 0
-302 301 0
302 -297 -301 0
-303 -297 0
-303 -301 0
303 297 301 0
-304 -302 0
-304 -303 0
304 302 303 0
-305 18 0
-305 20 0
305 -18 -20 0
-306 304 0
-306 305 0
306 -304 -305 0
-307 -299 0
-307 -302 0
307 299 302 0
-308 14 0
-308 19 0
308 -14 -19 0
-309 12 0
-309 308 0
309 -12 -308 0
-310 -12 0
-310 -308 0
310 12 308 0
-311 -309 0
-311 -310 0
311 309 310 0
-312 -307 0
-312 311 0
312 307 -311 0
-313 307 0
-313 -311 0
313 -307 311 0
-314 -312 0
-314 -313 0
314 312 313 0
-315 16 0
-315 20 0
315 -16 -20 0
-316 314 0
-316 315 0
316 -314 -315 0
-317 -314 0
-317 -315 0
317 314 315 0
-318 -316 0
-318 -317 0
318 316 317 0
-319 306 0
-319 318 0
319 -306 -318 0
-320 -306 0
-320 -318 0
320 306 318 0
-321 -319 0
-321 -320 0
321 319 320 0
-322 18 0
-322 21 0
322 -18 -21 0
-323 321 0
-323 322 0
323 -321 -322 0
-324 -316 0
-324 -319 0
324 316 319 0
-325 -309 0
-325 -312 0
325 309 312 0
-326 12 0
-326 19 0
326 -12 -19 0
-327 10 0
-327 326 0
327 -10 -326 0
-328 -10 0
-328 -326 0
328 10 326 0
-329 -327 0
-329 -328 0
329 327 328 0
-330 -325 0
-330 329 0
330 325 -329 0
-331 325 0
-331 -329 0
331 -325 329 0
-332 -330 0
-332 -331 0
332 330 331 0
-333 14 0
-333 20 0
333 -14 -20 0
-334 332 0
-334 333 0
334 -332 -333 0
-335 -332 0
-335 -333 0
335 332 333 0
-336 -334 0
-336 -335 0
336 334 335 0
-337 -324 0
-337 336 0
337 324 -336 0
-338 324 0
-338 -336 0
338 -324 336 0
-339 -337 0
-339 -338 0
339 337 338 0
-340 16 0
-340 21 0
340 -16 -21 0
-341 339 0
-341 340 0
341 -339 -340 0
-342 -339 0
-342 -340 0
342 339 340 0
-343 -341 0
-343 -342 0
343 341 342 0
-344 323 0
-344 343 0
344 -323 -343 0
-345 -323 0
-345 -343 0
345 323 343 0
-346 -344 0
-346 -345 0
346 344 345 0
-347 18 0
-347 22 0
347 -18 -22 0
-348 346 0
-348 347 0
348 -346 -347 0
-349 -341 0
-349 -344 0
349 341 344 0
-350 -334 0
-350 -337 0
350 334 337 0
-351 -327 0
-351 -330 0
351 327 330 0
-352 10 0
-352 19 0
352 -10 -19 0
-353 8 0
-353 352 0
353 -8 -352 0
-354 -8 0
-354 -352 0
354 8 352 0
-355 -353 0
-355 -354 0
355 353 354 0
-356 -351 0
-356 355 0
356 351 -355 0
-357 351 0
-357 -355 0
357 -351 355 0
-358 -356 0
-358 -357 0
358 356 357 0
-359 12 0
-359 20 0
359 -12 -20 0
-360 358 0
-360 359 0
360 -358 -359 0
-361 -358 0
-361 -359 0
361 358 359 0
-362 -360 0
-362 -361 0
362 360 361 0
-363 -350 0
-363 362 0
363 350 -362 0
-364 350 0
-364 -362 0
364 -350 362 0
-365 -363 0
-365 -364 0
365 363 364 0
-366 14 0
-366 21 0
366 -14 -21 0
-367 365 0
-367 366 0
367 -365 -366 0
-368 -365 0
-368 -366 0
368 365 366 0
-369 -367 0
-369 -368 0
369 367 368 0
-370 -349 0
-370 369 0
370 349 -369 0
-371 349 0
-371 -369 0
371 -349 369 0
-372 -370 0
-372 -371 0
372 370 371 0
-373 16 0
-373 22 0
373 -16 -22 0
-374 372 0
-374 373 0
374 -372 -373 0
-375 -372 0
-375 -373 0
375 372 373 0
-376 -374 0
-376 -375 0
376 374 375 0
-377 348 0
-377 376 0
377 -348 -376 0
-378 -348 0
-378 -376 0
378 348 376 0
-379 -377 0
-379 -378 0
379 377 378 0
-380 18 0
-380 23 0
380 -18 -23 0
-381 379 0
-381 380 0
381 -379 -380 0
-382 -374 0
-382 -377 0
382 374 377 0
-383 -367 0
-383 -370 0
383 367 370 0
-384 -360 0
-384 -363 0
384 360 363 0
-385 -353 0
-385 -356 0
385 353 356 0
-386 8 0
-386 19 0
386 -8 -19 0
-387 6 0
-387 386 0
387 -6 -386 0
-388 -6 0
-388 -386 0
388 6 386 0
-389 -387 0
-389 -388 0
389 387 388 0
-390 -385 0
-390 389 0
390 385 -389 0
-391 385 0
-391 -389 0
391 -385 389 0
-392 -390 0
-392 -391 0
392 390 391 0
-393 10 0
-393 20 0
393 -10 -20 0
-394 392 0
-394 393 0
394 -392 -393 0
-395 -392 0
-395 -393 0
395 392 393 0
-396 -394 0
-396 -395 0
396 394 395 0
-397 -384 0
-397 396 0
397 384 -396 0
-398 384 0
-398 -396 0
398 -384 396 0
-399 -397 0
-399 -398 0
399 397 398 0
-400 12 0
-400 21 0
400 -12 -21 0
-401 399 0
-401 400 0
401 -399 -400 0
-402 -399 0
-402 -400 0
402 399 400 0
-403 -401 0
-403 -402 0
403 401 402 0
-404 -383 0
-404 403 0
404 383 -403 0
-405 383 0
-405 -403 0
405 -383 403 0
-406 -404 0
-406 -405 0
406 404 405 0
-407 14 0
-407 22 0
407 -14 -22 0
-408 406 0
-408 407 0
408 -406 -407 0
-409 -406 0
-409 -407 0
409 406 407 0
-410 -408 0
-410 -409 0
410 408 409 0
-411 -382 0
-411 410 0
411 382 -410 0
-412 382 0
-412 -410 0
412 -382 410 0
-413 -411 0
-413 -412 0
413 411 412 0
-414 16 0
-414 23 0
414 -16 -23 0
-415 413 0
-415 414 0
415 -413 -414 0
-416 -413 0
-416 -414 0
416 413 414 0
-417 -415 0
-417 -416 0
417 415 416 0
-418 381 0
-418 417 0
418 -381 -417 0
-419 -381 0
-419 -417 0
419 381 417 0
-420 -418 0
-420 -419 0
420 418 419 0
-421 18 0
-421 24 0
421 -18 -24 0
-422 420 0
-422 421 0
422 -420 -421 0
-423 -415 0
-423 -418 0
423 415 418 0
-424 -408 0
-424 -411 0
424 408 411 0
-425 -401 0
-425 -404 0
425 401 404 0
-426 -394 0
-426 -397 0
426 394 397 0
-427 -387 0
-427 -390 0
427 387 390 0
-428 6 0
-428 19 0
428 -6 -19 0
-429 4 0
-429 428 0
429 -4 -428 0
-430 -4 0
-430 -428 0
430 4 428 0
-431 -429 0
-431 -430 0
431 429 430 0
-432 -427 0
-432 431 0
432 427 -431 0
-433 427 0
-433 -431 0
433 -427 431 0
-434 -432 0
-434 -433 0
434 432 433 0
-435 8 0
-435 20 0
435 -8 -20 0
-436 434 0
-436 435 0
436 -434 -435 0
-437 -434 0
-437 -435 0
437 434 435 0
-438 -436 0
-438 -437 0
438 436 437 0
-439 -426 0
-439 438 0
439 426 -438 0
-440 426 0
-440 -438 0
440 -426 438 0
-441 -439 0
-441 -440 0
441 439 440 0
-442 10 0
-442 21 0
442 -10 -21 0
-443 441 0
-443 442 0
443 -441 -442 0
-444 -441 0
-444 -442 0
444 441 442 0
-445 -443 0
-445 -444 0
445 443 444 0
-446 -425 0
-446 445 0
446 425 -445 0
-447 425 0
-447 -445 0
447 -425 445 0
-448 -446 0
-448 -447 0
448 446 447 0
-449 12 0
-449 22 0
449 -12 -22 0
-450 448 0
-450 449 0
450 -448 -449 0
-451 -448 0
-451 -449 0
451 448 449 0
-452 -450 0
-452 -451 0
452 450 451 0
-453 -424 0
-453 452 0
453 424 -452 0
-454 424 0
-454 -452 0
454 -424 452 0
-455 -453 0
-455 -454 0
455 453 454 0
-456 14 0
-456 23 0
456 -14 -23 0
-457 455 0
-457 456 0
457 -455 -456 0
-458 -455 0
-458 -456 0
458 455 456 0
-459 -457 0
-459 -458 0
459 457 458 0
-460 -423 0
-460 459 0
460 423 -459 0
-461 423 0
-461 -459 0
461 -423 459 0
-462 -460 0
-462 -461 0
462 460 461 0
-463 16 0
-463 24 0
463 -16 -24 0
-464 462 0
-464 463 0
464 -462 -463 0
-465 -462 0
-465 -463 0
465 462 463 0
-466 -464 0
-466 -465 0
466 464 465 0
-467 422 0
-467 466 0
467 -422 -466 0
-468 -422 0
-468 -466 0
468 422 466 0
-469 -467 0
-469 -468 0
469 467 468 0
-470 18 0
-470 25 0
470 -18 -25 0
-471 469 0
-471 470 0
471 -469 -470 0
-472 -464 0
-472 -467 0
472 464 467 0
-473 -457 0
-473 -460 0
473 457 460 0
-474 -450 0
-474 -453 0
474 450 453 0
-475 -443 0
-475 -446 0
475 443 446 0
-476 -436 0
-476 -439 0
476 436 439 0
-477 -429 0
-477 -432 0
477 429 432 0
-478 4 0
-478 19 0
478 -4 -19 0
-479 2 0
-479 478 0
479 -2 -478 0
-480 -2 0
-480 -478 0
480 2 478 0
-481 -479 0
-481 -480 0
481 479 480 0
-482 -477 0
-482 481 0
482 477 -481 0
-483 477 0
-483 -481 0
483 -477 481 0
-484 -482 0
-484 -483 0
484 482 483 0
-485 6 0
-485 20 0
485 -6 -20 0
-486 484 0
-486 485 0
486 -484 -485 0
-487 -484 0
-487 -485 0
487 484 485 0
-488 -486 0
-488 -487 0
488 486 487 0
-489 -476 0
-489 488 0
489 476 -488 0
-490 476 0
-490 -488 0
490 -476 488 0
-491 -489 0
-491 -490 0
491 489 490 0
-492 8 0
-492 21 0
492 -8 -21 0
-493 491 0
-493 492 0
493 -491 -492 0
-494 -491 0
-494 -492 0
494 491 492 0
-495 -493 0
-495 -494 0
495 493 494 0
-496 -475 0
-496 495 0
496 475 -495 0
-497 475 0
-497 -495 0
497 -475 495 0
-498 -496 0
-498 -497 0
498 496 497 0
-499 10 0
-499 22 0
499 -10 -22 0
-500 498 0
-500 499 0
500 -498 -499 0
-501 -498 0
-501 -499 0
501 498 499 0
-502 -500 0
-502 -501 0
502 500 501 0
-503 -474 0
-503 502 0
503 474 -502 0
-504 474 0
-504 -502 0
504 -474 502 0
-505 -503 0
-505 -504 0
505 503 504 0
-506 12 0
-506 23 0
506 -12 -23 0
-507 505 0
-507 506 0
507 -505 -506 0
-508 -505 0
-508 -506 0
508 505 506 0
-509 -507 0
-509 -508 0
509 507 508 0
-510 -473 0
-510 509 0
510 473 -509 0
-511 473 0
-511 -509 0
511 -473 509 0
-512 -510 0
-512 -511 0
512 510 511 0
-513 14 0
-513 24 0
513 -14 -24 0
-514 512 0
-514 513 0
514 -512 -513 0
-515 -512 0
-515 -513 0
515 512 513 0
-516 -514 0
-516 -515 0
516 514 515 0
-517 -472 0
-517 516 0
517 472 -516 0
-518 472 0
-518 -516 0
518 -472 516 0
-519 -517 0
-519 -518 0
519 517 518 0
-520 16 0
-520 25 0
520 -16 -25 0
-521 519 0
-521 520 0
521 -519 -520 0
-522 -519 0
-522 -520 0
522 519 520 0
-523 -521 0
-523 -522 0
523 521 522 0
-524 471 0
-524 523 0
524 -471 -523 0
-525 -471 0
-525 -523 0
525 471 523 0
-526 -524 0
-526 -525 0
526 524 525 0
-527 18 0
-527 26 0
527 -18 -26 0
-528 526 0
-528 527 0
528 -526 -527 0
-529 -526 0
-529 -527 0
529 526 527 0
-530 -528 0
-530 -529 0
530 528 529 0
531 -295 530 0
532 295 -530 0
-533 -531 0
-533 -532 0
-534 -234 0
-534 -235 0
534 234 235 0
-535 -236 0
-535 -534 0
535 236 534 0
-536 -469 0
-536 -470 0
536 469 470 0
-537 -471 0
-537 -536 0
537 471 536 0
538 -535 537 0
539 535 -537 0
-540 -538 0
-540 -539 0
-541 533 0
-541 540 0
-542 -185 0
-542 -186 0
542 185 186 0
-543 -187 0
-543 -542 0
543 187 542 0
-544 -420 0
-544 -421 0
544 420 421 0
-545 -422 0
-545 -544 0
545 422 544 0
546 -543 545 0
547 543 -545 0
-548 -546 0
-548 -547 0
-549 541 0
-549 548 0
-550 -144 0
-550 -145 0
550 144 145 0
-551 -146 0
-551 -550 0
551 146 550 0
-552 -379 0
-552 -380 0
552 379 380 0
-553 -381 0
-553 -552 0
553 381 552 0
554 -551 553 0
555 551 -553 0
-556 -554 0
-556 -555 0
-557 549 0
-557 556 0
-558 -111 0
-558 -112 0
558 111 112 0
-559 -113 0
-559 -558 0
559 113 558 0
-560 -346 0
-560 -347 0
560 346 347 0
-561 -348 0
-561 -560 0
561 348 560 0
562 -559 561 0
563 559 -561 0
-564 -562 0
-564 -563 0
-565 557 0
-565 564 0
-566 -86 0
-566 -87 0
566 86 87 0
-567 -88 0
-567 -566 0
567 88 566 0
-568 -321 0
-568 -322 0
568 321 322 0
-569 -323 0
-569 -568 0
569 323 568 0
570 -567 569 0
571 567 -569 0
-572 -570 0
-572 -571 0
-573 565 0
-573 572 0
-574 -69 0
-574 -70 0
574 69 70 0
-575 -71 0
-575 -574 0
575 71 574 0
-576 -304 0
-576 -305 0
576 304 305 0
-577 -306 0
-577 -576 0
577 306 576 0
578 -575 577 0
579 575 -577 0
-580 -578 0
-580 -579 0
-581 573 0
-581 580 0
-582 -15 0
-582 -61 0
582 15 61 0
-583 -62 0
-583 -582 0
583 62 582 0
-584 -16 0
-584 -296 0
584 16 296 0
-585 -297 0
-585 -584 0
585 297 584 0
586 -583 585 0
587 583 -585 0
-588 -586 0
-588 -587 0
-589 581 0
-589 588 0
-590 60 0
-590 589 0
-591 -57 0
-591 590 0
591 0
